GLPSOL: GLPK LP/MIP Solver, v4.57
Parameter(s) specified in the command line:
 -m shortest_paths_with_parity.mod -d data/data_2_62.dat -o outputs/output_2_62.txt
Reading model section from shortest_paths_with_parity.mod...
43 lines were read
Reading data section from data/data_2_62.dat...
data/data_2_62.dat:110: warning: final NL missing before end of file
110 lines were read
Generating obj...
Generating cons1O1...
Generating cons1O2...
Generating cons1NotOD...
Generating cons1D1...
shortest_paths_with_parity.mod:26: S[62] out of domain
MathProg model processing error
